
%FILE DATA:	Soccer Computational Problem for MiniZinc Models	%
%AUTHOR:	Jack Wall	%
%CONTACT:  	116397063@umail.ucc.ie			%
%LAST UPDATE:	03/02/2020, 16:22:15						%
%DESCRIPTION: 	208 games played with 32 games left				%


n=16; %number of teams

%Games to play
games=[|9,10|14,10|10,6|4,5|12,4|7,11|8,15|16,6|15,11|13,15|5,9|12,13|2,16|7,15|13,5|2,1|7,4|15,14|15,7|8,6|16,7|3,2|9,13|13,16|7,2|14,8|4,10|1,10|13,11|6,15|15,6|14,1|];

%Initial points
iPoints=[39,26,48,42,44,29,38,28,39,32,37,39,33,24,20,36];

%POSITION CONSTRAINTS
% [|teamID, operator, position|...]
% operators index:
%  1 for =  operator
%  2 for >  operator
%  3 for >= operator
%  4 for <  operator
%  5 for <= operator
positionConstraints=[|4,3,1|3,2,1|7,3,3|5,3,4|];